17
1 0 23
2 0 15
2 1 17
3 0 10
3 1 44
3 2 8
4 0 28
4 1 45
4 2 46
4 3 54
5 0 4
5 1 34
5 2 9
5 3 15
5 4 38
6 0 36
6 1 44
6 2 4
6 3 50
6 4 38
6 5 25
7 0 6
7 1 37
7 2 22
7 3 30
7 4 6
7 5 43
7 6 44
8 0 24
8 1 9
8 2 26
8 3 53
8 4 6
8 5 21
8 6 24
8 7 19
9 0 32
9 1 3
9 2 4
9 3 51
9 4 26
9 5 16
9 6 5
9 7 28
9 8 7
10 0 33
10 1 16
10 2 23
10 3 8
10 4 54
10 5 20
10 6 41
10 7 39
10 8 33
10 9 7
11 0 53
11 1 27
11 2 43
11 3 26
11 4 49
11 5 17
11 6 24
11 7 42
11 8 15
11 9 44
11 10 38
12 0 39
12 1 46
12 2 41
12 3 20
12 4 48
12 5 40
12 6 51
12 7 48
12 8 18
12 9 42
12 10 22
12 11 29
13 0 49
13 1 44
13 2 39
13 3 11
13 4 29
13 5 14
13 6 33
13 7 44
13 8 18
13 9 25
13 10 53
13 11 30
13 12 6
14 0 31
14 1 12
14 2 15
14 3 6
14 4 6
14 5 13
14 6 27
14 7 46
14 8 5
14 9 47
14 10 23
14 11 7
14 12 47
14 13 11
15 0 26
15 1 48
15 2 44
15 3 21
15 4 15
15 5 30
15 6 13
15 7 37
15 8 23
15 9 40
15 10 48
15 11 48
15 12 54
15 13 30
15 14 1
16 0 27
16 1 4
16 2 7
16 3 29
16 4 3
16 5 25
16 6 38
16 7 38
16 8 42
16 9 24
16 10 41
16 11 40
16 12 5
16 13 19
16 14 41
16 15 11
